instances/shortest_path/discrete/shortest_path_3_17.lp
\ Model nohadani_3_17
\ LP format - for model browsing. Use MPS format to capture full model detail.
\ Signature: 0xf9a0f44b955a6a9b
Minimize
  63 y[0,1] + 79.00632886041473 y[0,2] + 63 y[1,0]
   + 101.6710381573829 y[1,2] + 79.00632886041473 y[2,0]
   + 101.6710381573829 y[2,1] + x[0,1] + x[0,2] + x[1,0] + x[1,2] + x[2,0]
   + x[2,1] + 6.3 r[0,1] + 7.900632886041473 r[0,2] + 6.3 r[1,0]
   + 10.16710381573829 r[1,2] + 7.900632886041473 r[2,0]
   + 10.16710381573829 r[2,1]
Subject To
 flow_cons_inner_nodes[0]: - y[0,1] - y[0,2] + y[1,0] + y[2,0] = 0
 flow_cons_source: - y[0,1] + y[1,0] + y[1,2] - y[2,1] = 1
 flow_cons_target: y[0,2] + y[1,2] - y[2,0] - y[2,1] = 1
 primal_lower: 8.031358241942758 x[0,1] + 10.2017949276318 x[0,2]
   + 0.1864216277311392 x[1,0] + 1.762207118015468 x[1,2]
   + 2.585055119129247 x[2,0] + 3.807311439716921 x[2,1] + 20 u[0,1]
   + 61 u[0,2] + 31 u[1,0] + 68 u[1,2] + 65 u[2,0] + 26 u[2,1] <= 68
 mccormick1[0,1]: - u[0,1] + r[0,1] <= 0
 mccormick1[0,2]: - u[0,2] + r[0,2] <= 0
 mccormick1[1,0]: - u[1,0] + r[1,0] <= 0
 mccormick1[1,2]: - u[1,2] + r[1,2] <= 0
 mccormick1[2,0]: - u[2,0] + r[2,0] <= 0
 mccormick1[2,1]: - u[2,1] + r[2,1] <= 0
 mccormick2[0,1]: - y[0,1] + r[0,1] <= 0
 mccormick2[0,2]: - y[0,2] + r[0,2] <= 0
 mccormick2[1,0]: - y[1,0] + r[1,0] <= 0
 mccormick2[1,2]: - y[1,2] + r[1,2] <= 0
 mccormick2[2,0]: - y[2,0] + r[2,0] <= 0
 mccormick2[2,1]: - y[2,1] + r[2,1] <= 0
 mccormick3[0,1]: - y[0,1] - u[0,1] + r[0,1] >= -1
 mccormick3[0,2]: - y[0,2] - u[0,2] + r[0,2] >= -1
 mccormick3[1,0]: - y[1,0] - u[1,0] + r[1,0] >= -1
 mccormick3[1,2]: - y[1,2] - u[1,2] + r[1,2] >= -1
 mccormick3[2,0]: - y[2,0] - u[2,0] + r[2,0] >= -1
 mccormick3[2,1]: - y[2,1] - u[2,1] + r[2,1] >= -1
Bounds
Binaries
 y[0,1] y[0,2] y[1,0] y[1,2] y[2,0] y[2,1] x[0,1] x[0,2] x[1,0] x[1,2]
 x[2,0] x[2,1] u[0,1] u[0,2] u[1,0] u[1,2] u[2,0] u[2,1] r[0,1] r[0,2]
 r[1,0] r[1,2] r[2,0] r[2,1]
End
