instances/shortest_path/discrete/shortest_path_3_17.kp
89695
68

[8.031358241942758 10.201794927631797 0.18642162773113918 1.7622071180154681 2.585055119129247 3.8073114397169205]

[20 61 31 68 65 26]
